c uprop, v00.0, 
c reading from data/prog745.c.cnf
c done reading: 0.003693
p cnf 162 737
-71 -89 0
71 89 0
-65 89 0
65 -89 0
71 -83 0
-81 -83 0
-71 81 83 0
-71 -76 81 0
71 -76 -81 0
71 76 81 0
-71 76 -81 0
-72 83 0
-69 -72 0
69 72 -83 0
-67 69 -83 0
-67 -69 83 0
67 69 83 0
67 -69 -83 0
-66 72 0
-63 -66 0
63 66 -72 0
-61 63 -72 0
-61 -63 72 0
61 63 72 0
61 -63 -72 0
66 -87 0
-85 -87 0
-66 85 87 0
-66 85 -91 0
66 -85 -91 0
66 85 91 0
-66 -85 91 0
87 -92 0
-78 -92 0
78 -87 92 0
78 -87 -93 0
-78 87 -93 0
78 87 93 0
-78 -87 93 0
92 -94 0
-74 -94 0
74 -92 94 0
74 -92 -95 0
-74 92 -95 0
74 92 95 0
-74 -92 95 0
81 -96 0
-81 96 0
-69 -89 97 0
69 89 -97 0
69 -97 0
89 -97 0
69 -97 -98 0
89 -97 -98 0
-97 -98 0
-69 97 98 0
-89 97 98 0
69 89 -98 0
-63 -81 99 0
-63 -97 99 0
-81 -97 99 0
63 81 -99 0
63 97 -99 0
81 97 -99 0
63 -99 -100 0
81 -99 -100 0
97 -99 -100 0
-63 99 100 0
-81 99 100 0
-97 99 100 0
-63 -81 -97 100 0
63 81 97 -100 0
-69 -85 101 0
-85 -99 101 0
-69 -99 101 0
69 85 -101 0
85 99 -101 0
69 99 -101 0
85 -101 -102 0
69 -101 -102 0
99 -101 -102 0
-85 101 102 0
-69 101 102 0
-99 101 102 0
-69 -85 -99 102 0
69 85 99 -102 0
-63 -78 103 0
-78 -101 103 0
-63 -101 103 0
63 78 -103 0
78 101 -103 0
63 101 -103 0
-60 78 -103 0
-60 63 -103 0
-60 101 -103 0
60 -78 103 0
60 -63 103 0
60 -101 103 0
60 -63 -78 -101 0
-60 63 78 101 0
59 -74 -85 0
59 -74 -103 0
59 -85 -103 0
-59 74 85 0
-59 74 103 0
-59 85 103 0
-58 -59 74 0
-58 -59 85 0
-58 -59 103 0
58 59 -74 0
58 59 -85 0
58 59 -103 0
58 -74 -85 -103 0
-58 74 85 103 0
-57 78 0
-57 59 0
57 -59 -78 0
-56 -59 -78 0
-56 59 78 0
56 59 -78 0
56 -59 78 0
74 -88 0
57 -88 0
-57 -74 88 0
-57 -74 -80 0
57 74 -80 0
57 -74 80 0
-57 74 80 0
-68 -89 0
68 89 0
-62 89 0
62 -89 0
68 -84 0
-84 -96 0
-68 84 96 0
-68 -77 96 0
68 -77 -96 0
68 77 96 0
-68 77 -96 0
-73 84 0
-73 -98 0
73 -84 98 0
-55 -84 98 0
-55 84 -98 0
55 84 98 0
55 -84 -98 0
-52 73 0
-52 -100 0
52 -73 100 0
-49 -73 100 0
-49 73 -100 0
49 73 100 0
49 -73 -100 0
-48 52 0
-48 -102 0
48 -52 102 0
-47 -52 102 0
-47 52 -102 0
47 52 102 0
47 -52 -102 0
-46 48 0
-46 -60 0
46 -48 60 0
-45 -48 60 0
-45 48 -60 0
45 48 60 0
45 -48 -60 0
-44 46 0
-44 -58 0
44 -46 58 0
-43 -46 58 0
-43 46 -58 0
43 46 58 0
43 -46 -58 0
-42 44 0
-42 -56 0
42 -44 56 0
-41 -44 56 0
-41 44 -56 0
41 44 56 0
41 -44 -56 0
-40 42 0
-40 -80 0
40 -42 80 0
-39 -42 80 0
-39 42 -80 0
39 42 80 0
39 -42 -80 0
-38 40 0
-38 -88 0
38 -40 88 0
-37 -40 88 0
-37 40 -88 0
37 40 88 0
37 -40 -88 0
-36 -53 0
-36 -50 0
36 50 53 0
50 53 -104 0
-50 -53 -104 0
50 -53 104 0
-50 53 104 0
36 -105 0
-105 -106 0
-36 105 106 0
-36 106 -108 0
36 -106 -108 0
36 106 108 0
-36 -106 108 0
105 -109 0
-109 -110 0
-105 109 110 0
-105 110 -112 0
105 -110 -112 0
105 110 112 0
-105 -110 112 0
109 -113 0
-113 -114 0
-109 113 114 0
-109 114 -116 0
109 -114 -116 0
109 114 116 0
-109 -114 116 0
113 -117 0
-117 -118 0
-113 117 118 0
-113 118 -120 0
113 -118 -120 0
113 118 120 0
-113 -118 120 0
117 -121 0
-121 -122 0
-117 121 122 0
-117 122 -124 0
117 -122 -124 0
117 122 124 0
-117 -122 124 0
121 -125 0
-125 -126 0
-121 125 126 0
-121 126 -128 0
121 -126 -128 0
121 126 128 0
-121 -126 128 0
50 -129 0
53 -129 0
-50 -53 129 0
-50 -53 -130 0
50 53 -130 0
-50 53 130 0
50 -53 130 0
-50 -106 131 0
-106 -129 131 0
-50 -129 131 0
50 106 -131 0
106 129 -131 0
50 129 -131 0
106 -131 -132 0
50 -131 -132 0
129 -131 -132 0
-106 131 132 0
-50 131 132 0
-129 131 132 0
-50 -106 -129 132 0
50 106 129 -132 0
-106 -110 133 0
-110 -131 133 0
-106 -131 133 0
106 110 -133 0
110 131 -133 0
106 131 -133 0
110 -133 -134 0
106 -133 -134 0
131 -133 -134 0
-110 133 134 0
-106 133 134 0
-131 133 134 0
-106 -110 -131 134 0
106 110 131 -134 0
-110 -114 135 0
-114 -133 135 0
-110 -133 135 0
110 114 -135 0
114 133 -135 0
110 133 -135 0
114 -135 -136 0
110 -135 -136 0
133 -135 -136 0
-114 135 136 0
-110 135 136 0
-133 135 136 0
-110 -114 -133 136 0
110 114 133 -136 0
-114 -118 137 0
-118 -135 137 0
-114 -135 137 0
114 118 -137 0
118 135 -137 0
114 135 -137 0
118 -137 -138 0
114 -137 -138 0
135 -137 -138 0
-118 137 138 0
-114 137 138 0
-135 137 138 0
-114 -118 -135 138 0
114 118 135 -138 0
-118 -122 139 0
-122 -137 139 0
-118 -137 139 0
118 122 -139 0
122 137 -139 0
118 137 -139 0
122 -139 -140 0
118 -139 -140 0
137 -139 -140 0
-122 139 140 0
-118 139 140 0
-137 139 140 0
-118 -122 -137 140 0
118 122 137 -140 0
-122 -126 141 0
-126 -139 141 0
-122 -139 141 0
122 126 -141 0
126 139 -141 0
122 139 -141 0
126 -141 -142 0
122 -141 -142 0
139 -141 -142 0
-126 141 142 0
-122 141 142 0
-139 141 142 0
-122 -126 -139 142 0
122 126 139 -142 0
126 -143 0
141 -143 0
-126 -141 143 0
-126 -141 -144 0
126 141 -144 0
-126 141 144 0
126 -141 144 0
132 -145 0
53 -145 0
-53 -132 145 0
-53 -132 -146 0
53 132 -146 0
53 -132 146 0
-53 132 146 0
-50 -134 147 0
-134 -145 147 0
-50 -145 147 0
50 134 -147 0
134 145 -147 0
50 145 -147 0
134 -147 -148 0
50 -147 -148 0
145 -147 -148 0
-134 147 148 0
-50 147 148 0
-145 147 148 0
-50 -134 -145 148 0
50 134 145 -148 0
-106 -136 149 0
-136 -147 149 0
-106 -147 149 0
106 136 -149 0
136 147 -149 0
106 147 -149 0
136 -149 -150 0
106 -149 -150 0
147 -149 -150 0
-136 149 150 0
-106 149 150 0
-147 149 150 0
-106 -136 -147 150 0
106 136 147 -150 0
-110 -138 151 0
-138 -149 151 0
-110 -149 151 0
110 138 -151 0
138 149 -151 0
110 149 -151 0
138 -151 -152 0
110 -151 -152 0
149 -151 -152 0
-138 151 152 0
-110 151 152 0
-149 151 152 0
-110 -138 -149 152 0
110 138 149 -152 0
-114 -140 153 0
-140 -151 153 0
-114 -151 153 0
114 140 -153 0
140 151 -153 0
114 151 -153 0
140 -153 -154 0
114 -153 -154 0
151 -153 -154 0
-140 153 154 0
-114 153 154 0
-151 153 154 0
-114 -140 -151 154 0
114 140 151 -154 0
-118 -142 155 0
-142 -153 155 0
-118 -153 155 0
118 142 -155 0
142 153 -155 0
118 153 -155 0
142 -155 -156 0
118 -155 -156 0
153 -155 -156 0
-142 155 156 0
-118 155 156 0
-153 155 156 0
-118 -142 -153 156 0
118 142 153 -156 0
-122 -144 157 0
-144 -155 157 0
-122 -155 157 0
122 144 -157 0
144 155 -157 0
122 155 -157 0
144 -157 -158 0
122 -157 -158 0
155 -157 -158 0
-144 157 158 0
-122 157 158 0
-155 157 158 0
-122 -144 -155 158 0
122 144 155 -158 0
-126 -143 159 0
-143 -157 159 0
-126 -157 159 0
126 143 -159 0
143 157 -159 0
126 157 -159 0
143 -159 -160 0
126 -159 -160 0
157 -159 -160 0
-143 159 160 0
-126 159 160 0
-157 159 160 0
-126 -143 -157 160 0
126 143 157 -160 0
-90 150 0
53 -90 0
-53 90 -150 0
-53 -82 -150 0
53 -82 150 0
53 82 -150 0
-53 82 150 0
-50 70 -152 0
70 -90 -152 0
-50 70 -90 0
50 -70 152 0
-70 90 152 0
50 -70 90 0
-64 -70 152 0
50 -64 -70 0
-64 -70 90 0
64 70 -152 0
-50 64 70 0
64 70 -90 0
-50 64 -90 -152 0
50 -64 90 152 0
86 -106 -154 0
-70 86 -154 0
-70 86 -106 0
-86 106 154 0
70 -86 154 0
70 -86 106 0
-79 -86 154 0
-79 -86 106 0
70 -79 -86 0
79 86 -154 0
79 86 -106 0
-70 79 86 0
-70 79 -106 -154 0
70 -79 106 154 0
75 -110 -156 0
75 -86 -156 0
75 -86 -110 0
-75 110 156 0
-75 86 156 0
-75 86 110 0
-54 -75 156 0
-54 -75 110 0
-54 -75 86 0
54 75 -156 0
54 75 -110 0
54 75 -86 0
54 -86 -110 -156 0
-54 86 110 156 0
51 -114 -158 0
51 -75 -158 0
51 -75 -114 0
-51 114 158 0
-51 75 158 0
-51 75 114 0
-51 -107 158 0
-51 -107 114 0
-51 75 -107 0
51 107 -158 0
51 107 -114 0
51 -75 107 0
-75 107 -114 -158 0
75 -107 114 158 0
111 -118 -160 0
-51 111 -160 0
-51 111 -118 0
-111 118 160 0
51 -111 160 0
51 -111 118 0
-111 -115 160 0
-111 -115 118 0
51 -111 -115 0
111 115 -160 0
111 115 -118 0
-51 111 115 0
-51 115 -118 -160 0
51 -115 118 160 0
119 -122 -159 0
-111 119 -159 0
-111 119 -122 0
-119 122 159 0
111 -119 159 0
111 -119 122 0
-119 -123 159 0
-119 122 -123 0
111 -119 -123 0
119 123 -159 0
119 -122 123 0
-111 119 123 0
-111 -122 123 -159 0
111 122 -123 159 0
126 -127 0
119 -127 0
-119 -126 127 0
-119 -126 -161 0
119 126 -161 0
119 -126 161 0
-119 126 161 0
-53 -162 0
-130 -162 0
53 130 162 0
-35 53 130 0
-35 -53 -130 0
35 -53 130 0
35 53 -130 0
-34 162 0
-34 -146 0
34 146 -162 0
-33 146 -162 0
-33 -146 162 0
33 146 162 0
33 -146 -162 0
-32 34 0
-32 -148 0
32 -34 148 0
-31 -34 148 0
-31 34 -148 0
31 34 148 0
31 -34 -148 0
-30 32 0
-30 -82 0
30 -32 82 0
-29 -32 82 0
-29 32 -82 0
29 32 82 0
29 -32 -82 0
-28 30 0
-28 -64 0
28 -30 64 0
-27 -30 64 0
-27 30 -64 0
27 30 64 0
27 -30 -64 0
-26 28 0
-26 -79 0
26 -28 79 0
-25 -28 79 0
-25 28 -79 0
25 28 79 0
25 -28 -79 0
-24 26 0
-24 -54 0
24 -26 54 0
-23 -26 54 0
-23 26 -54 0
23 26 54 0
23 -26 -54 0
-22 24 0
-22 -107 0
22 -24 107 0
-21 -24 107 0
-21 24 -107 0
21 24 107 0
21 -24 -107 0
-20 22 0
-20 -115 0
20 -22 115 0
-19 -22 115 0
-19 22 -115 0
19 22 115 0
19 -22 -115 0
-18 20 0
-18 -123 0
18 -20 123 0
-17 -20 123 0
-17 20 -123 0
17 20 123 0
17 -20 -123 0
-16 18 0
-16 -161 0
16 -18 161 0
-15 -18 161 0
-15 18 -161 0
15 18 161 0
15 -18 -161 0
-14 16 0
-14 -127 0
14 -16 127 0
-13 -16 127 0
-13 16 -127 0
13 16 127 0
13 -16 -127 0
-12 89 0
-12 53 0
12 -53 -89 0
53 -89 0
-53 89 0
11 -96 -130 0
11 -12 -96 0
11 -12 -130 0
-11 96 130 0
-11 12 96 0
-11 12 130 0
-11 96 0
-11 130 0
-11 12 0
12 96 130 0
10 -98 -146 0
10 -11 -98 0
10 -11 -146 0
-10 98 146 0
-10 11 98 0
-10 11 146 0
10 -98 0
10 -146 0
10 -11 0
-11 -98 -146 0
9 -100 -148 0
9 -10 -100 0
9 -10 -148 0
-9 100 148 0
-9 10 100 0
-9 10 148 0
-9 100 0
-9 148 0
-9 10 0
10 100 148 0
8 -82 -102 0
8 -9 -102 0
8 -9 -82 0
-8 82 102 0
-8 9 102 0
-8 9 82 0
-8 102 0
-8 82 0
-8 9 0
9 82 102 0
7 -60 -64 0
7 -8 -60 0
7 -8 -64 0
-7 60 64 0
-7 8 60 0
-7 8 64 0
-7 60 0
-7 64 0
-7 8 0
8 60 64 0
6 -58 -79 0
6 -7 -58 0
6 -7 -79 0
-6 58 79 0
-6 7 58 0
-6 7 79 0
-6 58 0
-6 79 0
-6 7 0
7 58 79 0
5 -54 -56 0
5 -6 -56 0
5 -6 -54 0
-5 54 56 0
-5 6 56 0
-5 6 54 0
5 -56 0
5 -54 0
5 -6 0
-6 -54 -56 0
4 -80 -107 0
4 -5 -80 0
4 -5 -107 0
-4 80 107 0
-4 5 80 0
-4 5 107 0
4 -80 0
4 -107 0
4 -5 0
-5 -80 -107 0
3 -88 -115 0
3 -4 -88 0
3 -4 -115 0
-3 88 115 0
-3 4 88 0
-3 4 115 0
3 -88 0
3 -115 0
3 -4 0
-4 -88 -115 0
-2 123 0
-2 3 0
2 -3 -123 0
3 -123 0
-3 123 0
-1 161 0
-1 2 0
1 -2 -161 0
2 -161 0
-2 161 0
-1 -127 0
1 -127 0
-1 127 0
